* ENCODING=ISO-8859-1
NAME          CPLEX
ROWS
 N  obj1    
 G  c1      
 G  c2      
 G  c3      
 G  c4      
 G  c5      
 G  c6      
 G  c7      
 G  c8      
 G  c9      
 G  c10     
 G  c11     
 G  c12     
 G  c13     
 G  c14     
 G  c15     
 G  c16     
 G  c17     
 G  c18     
 G  c19     
 G  c20     
 G  c21     
 G  c22     
 G  c23     
 G  c24     
 G  c25     
 G  c26     
 G  c27     
 G  c28     
 G  c29     
 G  c30     
 G  c31     
 G  c32     
 G  c33     
 G  c34     
 G  c35     
 G  c36     
 G  c37     
 G  c38     
 G  c39     
 G  c40     
 G  c41     
 G  c42     
 G  c43     
 G  c44     
 G  c45     
 G  c46     
 G  c47     
 G  c48     
 G  c49     
 G  c50     
 G  c51     
 G  c52     
 G  c53     
 G  c54     
 G  c55     
 G  c56     
 G  c57     
 G  c58     
 G  c59     
 G  c60     
COLUMNS
    MARK0000  'MARKER'                 'INTORG'
    x1        obj1                            1
    x1        c14                           587
    x1        c26                           310
    x1        c31                           668
    x2        obj1                            1
    x2        c7                            275
    x2        c30                           260
    x2        c32                           128
    x2        c40                           918
    x2        c48                           550
    x2        c51                           617
    x2        c59                           135
    x3        obj1                            1
    x3        c1                            905
    x3        c9                            873
    x3        c17                           711
    x3        c21                           154
    x3        c40                           619
    x3        c42                           827
    x3        c45                           681
    x3        c53                           452
    x3        c60                           337
    x4        obj1                            1
    x4        c1                            713
    x4        c5                            127
    x4        c10                           498
    x4        c22                           631
    x4        c23                           439
    x4        c32                           388
    x4        c38                           403
    x4        c44                           291
    x4        c46                           360
    x4        c49                           351
    x4        c51                           974
    x4        c58                           422
    x5        obj1                            1
    x5        c4                            629
    x5        c17                           528
    x5        c31                           750
    x5        c33                           519
    x5        c41                           481
    x5        c52                           224
    x6        obj1                            1
    x6        c17                           866
    x6        c24                           650
    x6        c42                           688
    x6        c48                           230
    x6        c52                           592
    x6        c53                           268
    x7        obj1                            1
    x7        c6                            705
    x7        c37                           455
    x7        c38                           607
    x7        c39                           675
    x7        c41                           350
    x7        c55                           298
    x7        c56                           534
    x7        c57                           932
    x8        obj1                            1
    x8        c2                            132
    x8        c6                            708
    x8        c9                            765
    x8        c11                           911
    x8        c22                           345
    x8        c27                           221
    x8        c45                           935
    x8        c47                           480
    x8        c49                           674
    x9        obj1                            1
    x9        c13                           844
    x9        c14                           918
    x9        c16                           757
    x9        c35                           156
    x9        c37                           972
    x9        c40                           721
    x9        c51                           884
    x9        c53                           909
    x10       obj1                            1
    x10       c1                            521
    x10       c2                            757
    x10       c13                           808
    x10       c14                           584
    x10       c15                           803
    x10       c44                           427
    x11       obj1                            1
    x11       c28                           857
    x11       c44                           428
    x11       c48                           768
    x11       c50                           653
    x12       obj1                            1
    x12       c24                           644
    x12       c57                           990
    x12       c59                           844
    x13       obj1                            1
    x13       c6                            544
    x13       c15                           191
    x13       c36                           301
    x13       c42                           672
    x13       c57                           760
    x14       obj1                            1
    x14       c7                            759
    x14       c19                           142
    x14       c20                           472
    x14       c29                           875
    x14       c52                           530
    x14       c57                           221
    x15       obj1                            1
    x15       c4                            119
    x15       c36                           512
    x15       c37                           337
    x15       c42                           343
    x15       c58                           997
    x16       obj1                            1
    x16       c3                            338
    x16       c8                            707
    x16       c34                           980
    x16       c41                           336
    x16       c56                           335
    x16       c60                           635
    x17       obj1                            1
    x17       c1                            186
    x17       c3                            751
    x17       c17                           942
    x17       c18                           714
    x17       c22                           117
    x17       c44                           777
    x17       c45                           111
    x17       c46                           356
    x17       c51                           753
    x17       c54                           647
    x17       c58                           304
    x18       obj1                            1
    x18       c18                           878
    x18       c28                           418
    x18       c29                           159
    x18       c32                           113
    x18       c34                           693
    x18       c40                           167
    x18       c55                           491
    x19       obj1                            1
    x19       c7                            358
    x19       c13                           121
    x19       c53                           317
    x19       c60                           504
    x20       obj1                            1
    x20       c10                           784
    x20       c51                           740
    x20       c56                           490
    x21       obj1                            1
    x21       c16                           384
    x21       c31                           210
    x21       c33                           149
    x21       c35                           523
    x21       c43                           231
    x22       obj1                            1
    x22       c6                            402
    x22       c9                            522
    x22       c21                           894
    x22       c24                           382
    x22       c27                           912
    x22       c39                           376
    x22       c45                           135
    x22       c48                           367
    x23       obj1                            1
    x23       c1                            255
    x23       c9                            226
    x23       c23                           685
    x23       c30                           555
    x23       c36                           644
    x23       c39                           993
    x23       c57                           952
    x24       obj1                            1
    x24       c2                            579
    x24       c10                           795
    x24       c18                           517
    x24       c41                           673
    x24       c55                           978
    x25       obj1                            1
    x25       c4                            834
    x25       c6                            321
    x25       c11                           872
    x25       c33                           510
    x25       c37                           229
    x25       c38                           375
    x25       c54                           960
    x26       obj1                            1
    x26       c1                            288
    x26       c19                           866
    x26       c23                           312
    x26       c27                           430
    x27       obj1                            1
    x27       c15                           200
    x27       c23                           266
    x27       c41                           251
    x27       c48                           914
    x27       c52                           661
    x27       c54                           503
    x28       obj1                            1
    x28       c1                            671
    x28       c3                            921
    x28       c10                           623
    x28       c15                           774
    x28       c31                           988
    x28       c33                           863
    x28       c46                           411
    x28       c51                           447
    x29       obj1                            1
    x29       c35                           384
    x29       c45                           709
    x29       c54                           544
    x29       c55                           768
    x30       obj1                            1
    x30       c19                           845
    x30       c26                           134
    x30       c30                           909
    x30       c47                           753
    x30       c49                           620
    x30       c50                           698
    x30       c60                           300
    x31       obj1                            1
    x31       c2                            688
    x31       c8                            308
    x31       c27                           475
    x31       c42                           492
    x31       c44                           731
    x31       c49                           647
    x32       obj1                            1
    x32       c2                            760
    x32       c9                            697
    x32       c10                           597
    x32       c25                           200
    x32       c28                           204
    x32       c37                           911
    x32       c60                           335
    x33       obj1                            1
    x33       c4                            862
    x33       c33                           273
    x33       c41                           621
    x33       c53                           319
    x33       c54                           657
    x33       c58                           475
    x33       c59                           820
    x34       obj1                            1
    x34       c20                           597
    x34       c29                           142
    x34       c30                           733
    x34       c41                           517
    x34       c47                           169
    x34       c57                           882
    x35       obj1                            1
    x35       c5                            699
    x35       c33                           953
    x35       c58                           228
    x36       obj1                            1
    x36       c1                            427
    x36       c7                            609
    x36       c12                           374
    x36       c30                           877
    x36       c32                           341
    x36       c35                           819
    x36       c60                           611
    x37       obj1                            1
    x37       c6                            398
    x37       c23                           616
    x37       c32                           581
    x37       c38                           226
    x37       c42                           990
    x37       c50                           203
    x37       c59                           843
    x38       obj1                            1
    x38       c10                           444
    x38       c26                           834
    x38       c31                           972
    x38       c38                           298
    x38       c45                           211
    x38       c54                           720
    x38       c58                           971
    x38       c59                           882
    x39       obj1                            1
    x39       c11                           479
    x39       c15                           690
    x39       c21                           810
    x39       c24                           133
    x39       c26                           334
    x39       c32                           393
    x39       c38                           367
    x39       c43                           772
    x40       obj1                            1
    x40       c4                            192
    x40       c15                           797
    x40       c24                           925
    x40       c31                           551
    x40       c34                           939
    x40       c38                           662
    x40       c48                           669
    x40       c53                           663
    x41       obj1                            1
    x41       c3                            996
    x41       c17                           350
    x41       c20                           515
    x41       c30                           180
    x41       c33                           880
    x42       obj1                            1
    x42       c11                           290
    x42       c12                           386
    x42       c23                           630
    x42       c35                           136
    x42       c48                           281
    x42       c52                           250
    x42       c57                           563
    x43       obj1                            1
    x43       c2                            928
    x43       c22                           785
    x44       obj1                            1
    x44       c2                            647
    x44       c15                           597
    x44       c16                           680
    x44       c17                           856
    x44       c22                           873
    x44       c46                           577
    x45       obj1                            1
    x45       c7                            409
    x45       c9                            868
    x45       c10                           944
    x45       c22                           367
    x45       c25                           260
    x45       c35                           365
    x45       c39                           521
    x45       c42                           596
    x45       c54                           619
    x46       obj1                            1
    x46       c3                            453
    x46       c9                            783
    x46       c11                           188
    x46       c24                           787
    x46       c33                           982
    x46       c39                           661
    x46       c47                           851
    x46       c49                          1000
    x47       obj1                            1
    x47       c7                            948
    x47       c25                           207
    x47       c27                           583
    x48       obj1                            1
    x48       c5                            357
    x48       c24                           279
    x48       c40                           483
    x48       c45                           652
    x48       c58                           630
    x48       c59                           624
    x49       obj1                            1
    x49       c10                           774
    x49       c14                           931
    x49       c36                           508
    x50       obj1                            1
    x50       c5                            106
    x50       c14                           111
    x50       c25                           831
    x50       c41                           388
    x50       c60                           240
    x51       obj1                            1
    x51       c19                           480
    x51       c21                           554
    x51       c47                           704
    x51       c54                           504
    x52       obj1                            1
    x52       c9                            692
    x52       c23                           284
    x52       c32                           403
    x52       c35                           315
    x52       c38                           485
    x52       c50                           993
    x52       c51                           548
    x52       c55                           574
    x53       obj1                            1
    x53       c2                            913
    x53       c12                           326
    x53       c13                           294
    x53       c22                           174
    x53       c30                           962
    x53       c59                           665
    x54       obj1                            1
    x54       c4                            918
    x54       c8                            929
    x54       c9                            467
    x54       c23                           630
    x54       c30                           644
    x54       c36                           909
    x54       c43                           444
    x54       c50                           841
    x54       c52                           237
    x54       c56                           786
    x55       obj1                            1
    x55       c40                           129
    x55       c42                           918
    x55       c53                           373
    x56       obj1                            1
    x56       c4                            973
    x56       c26                           916
    x56       c55                           317
    x56       c60                           129
    x57       obj1                            1
    x57       c5                            208
    x57       c7                            466
    x57       c25                           483
    x57       c26                           550
    x57       c42                           218
    x57       c50                           902
    x57       c53                           582
    x57       c57                           174
    x58       obj1                            1
    x58       c3                            655
    x58       c12                           397
    x58       c14                           934
    x58       c17                           155
    x58       c30                           449
    x58       c34                           328
    x58       c55                           828
    x59       obj1                            1
    x59       c2                            477
    x59       c5                            797
    x59       c14                           987
    x59       c15                           830
    x59       c17                           806
    x59       c25                           506
    x59       c45                           986
    x59       c50                           461
    x59       c52                           898
    x59       c57                           919
    x59       c59                           260
    x60       obj1                            1
    x60       c23                           102
    x60       c33                           364
    x60       c36                           535
    x60       c38                           329
    x60       c44                           424
    MARK0001  'MARKER'                 'INTEND'
RHS
    rhs       c1                           1983
    rhs       c2                           2941
    rhs       c3                           2057
    rhs       c4                           2264
    rhs       c5                           1147
    rhs       c6                           1539
    rhs       c7                           1912
    rhs       c8                            972
    rhs       c9                           2947
    rhs       c10                          2730
    rhs       c11                          1370
    rhs       c12                           742
    rhs       c13                          1034
    rhs       c14                          2526
    rhs       c15                          2441
    rhs       c16                           911
    rhs       c17                          2607
    rhs       c18                          1055
    rhs       c19                          1167
    rhs       c20                           792
    rhs       c21                          1206
    rhs       c22                          1646
    rhs       c23                          1982
    rhs       c24                          1900
    rhs       c25                          1244
    rhs       c26                          1539
    rhs       c27                          1311
    rhs       c28                           740
    rhs       c29                           588
    rhs       c30                          2785
    rhs       c31                          2070
    rhs       c32                          1174
    rhs       c33                          2747
    rhs       c34                          1470
    rhs       c35                          1349
    rhs       c36                          1705
    rhs       c37                          1452
    rhs       c38                          1876
    rhs       c39                          1613
    rhs       c40                          1519
    rhs       c41                          1809
    rhs       c42                          2872
    rhs       c43                           724
    rhs       c44                          1539
    rhs       c45                          2210
    rhs       c46                           852
    rhs       c47                          1479
    rhs       c48                          1890
    rhs       c49                          1646
    rhs       c50                          2376
    rhs       c51                          2482
    rhs       c52                          1696
    rhs       c53                          1942
    rhs       c54                          2577
    rhs       c55                          2127
    rhs       c56                          1073
    rhs       c57                          3197
    rhs       c58                          2014
    rhs       c59                          2537
    rhs       c60                          1546
BOUNDS
 LI bnd       x1        0
 LI bnd       x2        0
 LI bnd       x3        0
 LI bnd       x4        0
 LI bnd       x5        0
 LI bnd       x6        0
 LI bnd       x7        0
 LI bnd       x8        0
 LI bnd       x9        0
 LI bnd       x10       0
 LI bnd       x11       0
 LI bnd       x12       0
 LI bnd       x13       0
 LI bnd       x14       0
 LI bnd       x15       0
 LI bnd       x16       0
 LI bnd       x17       0
 LI bnd       x18       0
 LI bnd       x19       0
 LI bnd       x20       0
 LI bnd       x21       0
 LI bnd       x22       0
 LI bnd       x23       0
 LI bnd       x24       0
 LI bnd       x25       0
 LI bnd       x26       0
 LI bnd       x27       0
 LI bnd       x28       0
 LI bnd       x29       0
 LI bnd       x30       0
 LI bnd       x31       0
 LI bnd       x32       0
 LI bnd       x33       0
 LI bnd       x34       0
 LI bnd       x35       0
 LI bnd       x36       0
 LI bnd       x37       0
 LI bnd       x38       0
 LI bnd       x39       0
 LI bnd       x40       0
 LI bnd       x41       0
 LI bnd       x42       0
 LI bnd       x43       0
 LI bnd       x44       0
 LI bnd       x45       0
 LI bnd       x46       0
 LI bnd       x47       0
 LI bnd       x48       0
 LI bnd       x49       0
 LI bnd       x50       0
 LI bnd       x51       0
 LI bnd       x52       0
 LI bnd       x53       0
 LI bnd       x54       0
 LI bnd       x55       0
 LI bnd       x56       0
 LI bnd       x57       0
 LI bnd       x58       0
 LI bnd       x59       0
 LI bnd       x60       0
ENDATA
